c 9th DIMACS Implementation Challenge: Shortest Paths
c http://www.dis.uniroma1.it/~challenge9
c TIGER/Line graph USA-road-d.NY
c
p sp 10 22
c graph contains 10 nodes and 22 arcs
c
a 0 1 15
a 1 0 15
a 0 2 1
a 2 0 1
a 1 4 10
a 4 1 10
a 2 3 20
a 3 2 20
a 1 3 3
a 3 1 3
a 3 4 2
a 4 3 2
a 3 5 5
a 5 3 5
a 5 7 3
a 7 5 3
a 5 6 1
a 6 5 1
a 6 7 1
a 7 6 1
a 8 9 10
a 9 8 10
